70
    1    68    68
    2     5     2
    3    17    22
    4    61    55
    5    41    44
    6    47    44
    7    30    33
    8     4     8
    9    57    57
   10    40    44
   11    17    24
   12    19    15
   13     7     4
   14    17    18
   15    42    43
   16    28    33
   17    35    39
   18    47    50
   19    39    35
   20    21    20
   21    72    67
   22    61    66
   23    25    24
   24    52    45
   25    14    17
   26     9    14
   27    40    34
   28    22    18
   29    31    24
   30    38    35
   31    35    32
   32    58    56
   33    39    40
   34    22    17
   35    62    68
   36    42    47
   37    41    44
   38    10     7
   39    10    16
   40    37    41
   41    51    47
   42    22    16
   43     7     4
   44     4    10
   45    17    21
   46    29    35
   47     8     4
   48    42    42
   49    35    35
   50    18    12
   51    74    67
   52    65    66
   53    20    17
   54    46    52
   55     9    15
   56    14    18
   57    22    27
   58    27    25
   59    54    56
   60     1     4
   61    54    59
   62    28    31
   63    58    62
   64    56    53
   65    42    36
   66    20    18
   67     1     3
   68    45    43
   69    57    60
   70    17    10
71
